(set-info :origin "SVCOMP13 benchmarks generated by Arie Gurfinkel")
(set-info :status sat)
(set-logic HORN)
(declare-fun cp-rel-entry () Bool)
(declare-fun cp-rel-bb1.i.i (Real Real Real Real) Bool)
(declare-fun cp-rel-bb2.i.i36.i.i () Bool)
(assert |cp-rel-entry|)
(assert (forall ((?A Real) (?B Real) (?C Real) (?D Real) (?E Bool) )(let (($x621779 (and |cp-rel-entry| (<= ?D 1.0) (>= ?C 0.0) (<= ?C 0.0) (>= ?B 0.0) (<= ?B 0.0) (>= ?A 1.0) (<= ?A 1.0) (= ?E true) (>= ?D 1.0))))
(=> $x621779 (|cp-rel-bb1.i.i| ?A ?B ?C ?D))))
)
(assert (forall ((?A Real) (?B Real) (?C Real) (?D Real) (?E Real) (?F Real) (?G Real) (?H Real) (?I Bool) (?J Bool) (?K Bool) (?L Bool) (?M Bool) (?N Bool) (?O Real) (?P Real) (?Q Bool) (?R Bool) (?S Bool) (?T Bool) (?U Bool) (?V Bool) (?W Real) (?X Real) (?Y Bool) (?Z Bool) (?A1 Bool) (?B1 Bool) (?C1 Bool) (?D1 Bool) (?E1 Bool) (?F1 Bool) (?G1 Bool) (?H1 Bool) (?I1 Bool) (?J1 Bool) (?K1 Bool) (?L1 Real) (?M1 Real) (?N1 Bool) (?O1 Bool) (?P1 Bool) (?Q1 Bool) (?R1 Bool) (?S1 Bool) (?T1 Bool) (?U1 Bool) (?V1 Bool) (?W1 Bool) (?X1 Bool) (?Y1 Bool) (?Z1 Bool) (?A2 Bool) (?B2 Bool) (?C2 Bool) (?D2 Real) (?E2 Real) (?F2 Real) (?G2 Real) (?H2 Real) (?I2 Bool) (?J2 Bool) (?K2 Bool) (?L2 Bool) (?M2 Bool) (?N2 Bool) (?O2 Real) (?P2 Bool) (?Q2 Real) (?R2 Real) (?S2 Bool) (?T2 Real) (?U2 Real) (?V2 Bool) (?W2 Real) (?X2 Bool) (?Y2 Bool) (?Z2 Bool) (?A3 Bool) (?B3 Bool) (?C3 Bool) )(let (($x365961 (|cp-rel-bb1.i.i| ?E ?F ?G ?H)))
(let (($x271983 (= ?N2 (and ?C3 ?B3))))
(let (($x41215 (or (not ?I) (and ?J ?K (not ?L)))))
(let (($x12842 (or (not ?I) ?K)))
(let (($x438209 (not ?M)))
(let (($x621583 (or $x438209 (and ?I ?N (<= ?O ?P) (>= ?O ?P)) (and ?J ?Q ?L (<= ?O ?D) (>= ?O ?D)))))
(let (($x233306 (or $x438209 (and ?N (not ?Q)) (and ?Q (not ?N)))))
(let (($x911165 (or (not ?R) (and ?M ?S (not ?T)))))
(let (($x862688 (or (not ?R) ?S)))
(let (($x135354 (not ?U)))
(let (($x244912 (or $x135354 (and ?R ?V (<= ?W ?X) (>= ?W ?X)) (and ?M ?Y ?T (<= ?W ?C) (>= ?W ?C)))))
(let (($x345141 (or $x135354 (and ?V (not ?Y)) (and ?Y (not ?V)))))
(let (($x166831 (or (not ?Z) (and ?U ?A1 ?B1))))
(let (($x236580 (or (not ?Z) ?A1)))
(let (($x213239 (or (not ?C1) (and ?Z ?D1 ?E1) (and ?U ?F1 (not ?B1)))))
(let (($x388257 (or (not ?C1) (and ?D1 (not ?F1)) (and ?F1 (not ?D1)))))
(let (($x478352 (or (not ?G1) (and ?C1 ?H1 (not ?I1)))))
(let (($x387962 (or (not ?G1) ?H1)))
(let (($x638816 (or (not ?J1) (and ?G1 ?K1 (<= ?L1 ?M1) (>= ?L1 ?M1)) (and ?C1 ?N1 ?I1 (<= ?L1 ?O) (>= ?L1 ?O)))))
(let (($x699396 (or (not ?J1) (and ?K1 (not ?N1)) (and ?N1 (not ?K1)))))
(let (($x35725 (or (not ?O1) (and ?J1 ?P1 (not ?Q1)))))
(let (($x396556 (or (not ?O1) ?P1)))
(let (($x111727 (or (not ?R1) (and ?O1 ?S1 ?I1))))
(let (($x506818 (or (not ?R1) ?S1)))
(let (($x346019 (or (not ?T1) (and ?O1 ?U1 (not ?I1)))))
(let (($x256690 (or (not ?T1) ?U1)))
(let (($x409244 (or (not ?V1) (and ?R1 ?W1 ?X1))))
(let (($x379498 (or (not ?V1) ?W1)))
(let (($x128216 (or (not ?Y1) (and ?T1 ?Z1 ?A2))))
(let (($x368336 (or (not ?Y1) ?Z1)))
(let (($x203551 (>= ?G2 0.0)))
(let (($x353214 (<= ?G2 0.0)))
(let (($x239124 (and ?Z ?M2 (not ?E1) (<= ?D2 0.0) (>= ?D2 0.0) (<= ?E2 0.0) (>= ?E2 0.0) (<= ?F2 ?O) (>= ?F2 ?O) $x353214 $x203551)))
(let (($x33729 (>= ?G2 ?B)))
(let (($x536727 (<= ?G2 ?B)))
(let (($x480103 (>= ?F2 ?L1)))
(let (($x582527 (<= ?F2 ?L1)))
(let (($x353988 (>= ?E2 ?A)))
(let (($x277700 (<= ?E2 ?A)))
(let (($x597448 (>= ?D2 ?B)))
(let (($x460177 (<= ?D2 ?B)))
(let (($x156542 (and ?V1 ?C2 $x460177 $x597448 $x277700 $x353988 $x582527 $x480103 (<= ?G2 ?H2) (>= ?G2 ?H2))))
(let (($x206378 (not ?B2)))
(let (($x629257 (or $x206378 $x156542 (and ?R1 ?I2 (not ?X1) $x460177 $x597448 $x277700 $x353988 $x582527 $x480103 $x536727 $x33729) (and ?Y1 ?J2 $x460177 $x597448 $x277700 $x353988 $x582527 $x480103 $x536727 $x33729) (and ?T1 ?K2 (not ?A2) $x460177 $x597448 $x277700 $x353988 $x582527 $x480103 $x353214 $x203551) (and ?J1 ?L2 ?Q1 $x460177 $x597448 $x277700 $x353988 $x582527 $x480103 $x536727 $x33729) $x239124)))
(let (($x289627 (or $x206378 (and ?C2 (not ?I2) (not ?J2) (not ?K2) (not ?L2) (not ?M2)) (and ?I2 (not ?C2) (not ?J2) (not ?K2) (not ?L2) (not ?M2)) (and ?J2 (not ?C2) (not ?I2) (not ?K2) (not ?L2) (not ?M2)) (and ?K2 (not ?C2) (not ?I2) (not ?J2) (not ?L2) (not ?M2)) (and ?L2 (not ?C2) (not ?I2) (not ?J2) (not ?K2) (not ?M2)) (and ?M2 (not ?C2) (not ?I2) (not ?J2) (not ?K2) (not ?L2)))))
(let (($x235037 (= ?B2 true)))
(let (($x107738 (= ?L (= ?O2 0.0))))
(let (($x563826 (= ?Q2 (ite ?P2 1.0 0.0))))
(let (($x168081 (= ?T (= ?R2 0.0))))
(let (($x361669 (= ?X (ite ?S2 1.0 0.0))))
(let (($x838595 (= ?B1 (= ?T2 0.0))))
(let (($x181325 (= ?E1 (= ?U2 0.0))))
(let (($x32751 (= ?V2 (not (<= ?O 0.0)))))
(let (($x250889 (= ?W2 (+ (~ 1.0) ?O))))
(let (($x371571 (= ?M1 (ite ?V2 ?W2 ?O))))
(let (($x246929 (= ?X1 (not (<= ?L1 1.0)))))
(let (($x174006 (= ?A2 (= ?L1 0.0))))
(let (($x113697 (= ?X2 (= ?W 0.0))))
(let (($x306812 (= ?Y2 (= ?F2 2.0))))
(let (($x219046 (= ?Z2 (= ?G2 0.0))))
(let (($x40906 (= ?A3 (or ?Z2 ?Y2))))
(let (($x540248 (= ?B3 (not ?A3))))
(let (($x62014 (= ?C3 (= ?D2 0.0))))
(let (($x518025 (and (|cp-rel-bb1.i.i| ?A ?B ?C ?D) $x62014 $x540248 $x40906 $x219046 $x306812 (= ?H2 (ite ?X2 1.0 ?B)) $x113697 $x174006 $x246929 (= ?Q1 (= ?A 0.0)) $x371571 $x250889 $x32751 (= ?I1 (= ?B 0.0)) $x181325 $x838595 $x361669 (= ?S2 (= ?C 0.0)) $x168081 (= ?P (+ ?Q2 ?D)) $x563826 (= ?P2 (not (<= 2.0 ?D))) $x107738 (>= ?H ?F2) (<= ?H ?F2) (>= ?G ?W) (<= ?G ?W) (>= ?F ?G2) (<= ?F ?G2) (>= ?E ?E2) (<= ?E ?E2) (not (= ?N2 true)) $x235037 $x289627 $x629257 $x368336 $x128216 $x379498 $x409244 $x256690 $x346019 $x506818 $x111727 $x396556 $x35725 $x699396 $x638816 $x387962 $x478352 $x388257 $x213239 $x236580 $x166831 $x345141 $x244912 $x862688 $x911165 $x233306 $x621583 $x12842 $x41215 $x271983)))
(=> $x518025 $x365961))))))))))))))))))))))))))))))))))))))))))))))))))))))))))))))))))
)
(assert (forall ((?A Real) (?B Real) (?C Real) (?D Real) (?E Bool) (?F Bool) (?G Bool) (?H Bool) (?I Bool) (?J Bool) (?K Real) (?L Real) (?M Bool) (?N Bool) (?O Bool) (?P Bool) (?Q Bool) (?R Bool) (?S Real) (?T Real) (?U Bool) (?V Bool) (?W Bool) (?X Bool) (?Y Bool) (?Z Bool) (?A1 Bool) (?B1 Bool) (?C1 Bool) (?D1 Bool) (?E1 Bool) (?F1 Bool) (?G1 Bool) (?H1 Real) (?I1 Real) (?J1 Bool) (?K1 Bool) (?L1 Bool) (?M1 Bool) (?N1 Bool) (?O1 Bool) (?P1 Bool) (?Q1 Bool) (?R1 Bool) (?S1 Bool) (?T1 Bool) (?U1 Bool) (?V1 Bool) (?W1 Bool) (?X1 Bool) (?Y1 Bool) (?Z1 Real) (?A2 Real) (?B2 Real) (?C2 Real) (?D2 Real) (?E2 Bool) (?F2 Bool) (?G2 Bool) (?H2 Bool) (?I2 Bool) (?J2 Bool) (?K2 Real) (?L2 Bool) (?M2 Real) (?N2 Real) (?O2 Bool) (?P2 Real) (?Q2 Real) (?R2 Bool) (?S2 Real) (?T2 Bool) (?U2 Bool) (?V2 Bool) (?W2 Bool) (?X2 Bool) (?Y2 Bool) )(let (($x271983 (= ?J2 (and ?Y2 ?X2))))
(let (($x41215 (or (not ?E) (and ?F ?G (not ?H)))))
(let (($x12842 (or (not ?E) ?G)))
(let (($x438209 (not ?I)))
(let (($x345488 (or $x438209 (and ?E ?J (<= ?K ?L) (>= ?K ?L)) (and ?F ?M ?H (<= ?K ?D) (>= ?K ?D)))))
(let (($x233306 (or $x438209 (and ?J (not ?M)) (and ?M (not ?J)))))
(let (($x911165 (or (not ?N) (and ?I ?O (not ?P)))))
(let (($x862688 (or (not ?N) ?O)))
(let (($x135354 (not ?Q)))
(let (($x80317 (or $x135354 (and ?N ?R (<= ?S ?T) (>= ?S ?T)) (and ?I ?U ?P (<= ?S ?C) (>= ?S ?C)))))
(let (($x345141 (or $x135354 (and ?R (not ?U)) (and ?U (not ?R)))))
(let (($x166831 (or (not ?V) (and ?Q ?W ?X))))
(let (($x236580 (or (not ?V) ?W)))
(let (($x213239 (or (not ?Y) (and ?V ?Z ?A1) (and ?Q ?B1 (not ?X)))))
(let (($x388257 (or (not ?Y) (and ?Z (not ?B1)) (and ?B1 (not ?Z)))))
(let (($x478352 (or (not ?C1) (and ?Y ?D1 (not ?E1)))))
(let (($x387962 (or (not ?C1) ?D1)))
(let (($x638816 (or (not ?F1) (and ?C1 ?G1 (<= ?H1 ?I1) (>= ?H1 ?I1)) (and ?Y ?J1 ?E1 (<= ?H1 ?K) (>= ?H1 ?K)))))
(let (($x699396 (or (not ?F1) (and ?G1 (not ?J1)) (and ?J1 (not ?G1)))))
(let (($x35725 (or (not ?K1) (and ?F1 ?L1 (not ?M1)))))
(let (($x396556 (or (not ?K1) ?L1)))
(let (($x111727 (or (not ?N1) (and ?K1 ?O1 ?E1))))
(let (($x506818 (or (not ?N1) ?O1)))
(let (($x346019 (or (not ?P1) (and ?K1 ?Q1 (not ?E1)))))
(let (($x256690 (or (not ?P1) ?Q1)))
(let (($x409244 (or (not ?R1) (and ?N1 ?S1 ?T1))))
(let (($x379498 (or (not ?R1) ?S1)))
(let (($x128216 (or (not ?U1) (and ?P1 ?V1 ?W1))))
(let (($x368336 (or (not ?U1) ?V1)))
(let (($x203551 (>= ?C2 0.0)))
(let (($x353214 (<= ?C2 0.0)))
(let (($x239124 (and ?V ?I2 (not ?A1) (<= ?Z1 0.0) (>= ?Z1 0.0) (<= ?A2 0.0) (>= ?A2 0.0) (<= ?B2 ?K) (>= ?B2 ?K) $x353214 $x203551)))
(let (($x841764 (>= ?C2 ?B)))
(let (($x546912 (<= ?C2 ?B)))
(let (($x480103 (>= ?B2 ?H1)))
(let (($x582527 (<= ?B2 ?H1)))
(let (($x283401 (>= ?A2 ?A)))
(let (($x117838 (<= ?A2 ?A)))
(let (($x156333 (>= ?Z1 ?B)))
(let (($x53829 (<= ?Z1 ?B)))
(let (($x541676 (and ?R1 ?Y1 $x53829 $x156333 $x117838 $x283401 $x582527 $x480103 (<= ?C2 ?D2) (>= ?C2 ?D2))))
(let (($x206378 (not ?X1)))
(let (($x266952 (or $x206378 $x541676 (and ?N1 ?E2 (not ?T1) $x53829 $x156333 $x117838 $x283401 $x582527 $x480103 $x546912 $x841764) (and ?U1 ?F2 $x53829 $x156333 $x117838 $x283401 $x582527 $x480103 $x546912 $x841764) (and ?P1 ?G2 (not ?W1) $x53829 $x156333 $x117838 $x283401 $x582527 $x480103 $x353214 $x203551) (and ?F1 ?H2 ?M1 $x53829 $x156333 $x117838 $x283401 $x582527 $x480103 $x546912 $x841764) $x239124)))
(let (($x289627 (or $x206378 (and ?Y1 (not ?E2) (not ?F2) (not ?G2) (not ?H2) (not ?I2)) (and ?E2 (not ?Y1) (not ?F2) (not ?G2) (not ?H2) (not ?I2)) (and ?F2 (not ?Y1) (not ?E2) (not ?G2) (not ?H2) (not ?I2)) (and ?G2 (not ?Y1) (not ?E2) (not ?F2) (not ?H2) (not ?I2)) (and ?H2 (not ?Y1) (not ?E2) (not ?F2) (not ?G2) (not ?I2)) (and ?I2 (not ?Y1) (not ?E2) (not ?F2) (not ?G2) (not ?H2)))))
(let (($x235037 (= ?X1 true)))
(let (($x246013 (= ?J2 true)))
(let (($x107738 (= ?H (= ?K2 0.0))))
(let (($x563826 (= ?M2 (ite ?L2 1.0 0.0))))
(let (($x168081 (= ?P (= ?N2 0.0))))
(let (($x361669 (= ?T (ite ?O2 1.0 0.0))))
(let (($x838595 (= ?X (= ?P2 0.0))))
(let (($x181325 (= ?A1 (= ?Q2 0.0))))
(let (($x32751 (= ?R2 (not (<= ?K 0.0)))))
(let (($x250889 (= ?S2 (+ (~ 1.0) ?K))))
(let (($x371571 (= ?I1 (ite ?R2 ?S2 ?K))))
(let (($x246929 (= ?T1 (not (<= ?H1 1.0)))))
(let (($x174006 (= ?W1 (= ?H1 0.0))))
(let (($x113697 (= ?T2 (= ?S 0.0))))
(let (($x306812 (= ?U2 (= ?B2 2.0))))
(let (($x219046 (= ?V2 (= ?C2 0.0))))
(let (($x40906 (= ?W2 (or ?V2 ?U2))))
(let (($x540248 (= ?X2 (not ?W2))))
(let (($x62014 (= ?Y2 (= ?Z1 0.0))))
(let (($x365961 (|cp-rel-bb1.i.i| ?A ?B ?C ?D)))
(let (($x624404 (and $x365961 $x62014 $x540248 $x40906 $x219046 $x306812 (= ?D2 (ite ?T2 1.0 ?B)) $x113697 $x174006 $x246929 (= ?M1 (= ?A 0.0)) $x371571 $x250889 $x32751 (= ?E1 (= ?B 0.0)) $x181325 $x838595 $x361669 (= ?O2 (= ?C 0.0)) $x168081 (= ?L (+ ?M2 ?D)) $x563826 (= ?L2 (not (<= 2.0 ?D))) $x107738 $x246013 $x235037 $x289627 $x266952 $x368336 $x128216 $x379498 $x409244 $x256690 $x346019 $x506818 $x111727 $x396556 $x35725 $x699396 $x638816 $x387962 $x478352 $x388257 $x213239 $x236580 $x166831 $x345141 $x80317 $x862688 $x911165 $x233306 $x345488 $x12842 $x41215 $x271983)))
(=> $x624404 |cp-rel-bb2.i.i36.i.i|)))))))))))))))))))))))))))))))))))))))))))))))))))))))))))))))))))
)
(assert (not cp-rel-bb2.i.i36.i.i))
(check-sat)
